SDVRP instances/custom_instances/p10_11_splitx10_0.vrp
NAME:p10_11_splitx10_
BEST_KNOWN: 0
COMMENT: 0
DIMENSION: 911
CAPACITY: 2000
EDGE_WEIGHT_FORMAT: FUNCTION
EDGE_WEIGHT_TYPE: EXACT_2D
NODE_COORD_SECTION
1 0.00000 0.00000
2 41 30
3 41 30
4 41 30
5 -16 -39
6 -16 -39
7 -16 -39
8 -16 -39
9 -31 39
10 -31 39
11 -31 39
12 -31 39
13 -31 39
14 -31 39
15 -31 39
16 29 11
17 29 11
18 29 11
19 29 11
20 29 11
21 -14 -48
22 -14 -48
23 16 -5
24 16 -5
25 16 -5
26 16 -5
27 16 -5
28 1 15
29 1 15
30 1 15
31 50 -12
32 50 -12
33 50 -12
34 -32 -25
35 -32 -25
36 -32 -25
37 -32 -25
38 -32 -25
39 -32 -25
40 2 17
41 2 17
42 2 17
43 2 17
44 2 17
45 2 17
46 -7 -37
47 -7 -37
48 -7 -37
49 -7 -37
50 -7 -37
51 -7 -37
52 12 32
53 12 32
54 12 32
55 -18 -8
56 -18 -8
57 -18 -8
58 -2 -24
59 -2 -24
60 -2 -24
61 -2 -24
62 -2 -24
63 -2 -24
64 13 47
65 13 47
66 -5 44
67 -5 44
68 -5 44
69 -5 44
70 -5 44
71 -33 -42
72 -33 -42
73 15 20
74 15 20
75 15 20
76 15 20
77 15 20
78 15 20
79 15 20
80 5 -27
81 5 -27
82 5 -27
83 5 -27
84 -2 22
85 -2 22
86 -2 22
87 -2 22
88 -2 22
89 -2 22
90 -2 22
91 -46 -7
92 -46 -7
93 -46 -7
94 -46 -7
95 -46 -7
96 -46 -7
97 -46 -7
98 -4 50
99 -4 50
100 -4 50
101 -45 15
102 -45 15
103 -45 15
104 -45 15
105 -45 15
106 23 -50
107 23 -50
108 23 -50
109 23 -50
110 23 -50
111 23 -50
112 23 -50
113 33 38
114 33 38
115 33 38
116 33 38
117 33 38
118 33 38
119 33 38
120 -18 -23
121 -18 -23
122 -18 -23
123 -18 -23
124 -18 -23
125 -18 -23
126 35 -33
127 35 -33
128 35 -33
129 35 -33
130 12 -40
131 12 -40
132 12 -40
133 12 -40
134 12 -40
135 12 -40
136 -1 36
137 -1 36
138 -1 36
139 -1 36
140 -1 36
141 -15 -4
142 -15 -4
143 -21 -18
144 -21 -18
145 -21 -18
146 2 -46
147 2 -46
148 2 -46
149 2 -46
150 2 -46
151 2 -46
152 37 -22
153 37 -22
154 37 -22
155 37 -22
156 37 -22
157 37 -22
158 -21 -18
159 -21 -18
160 -21 -18
161 -33 36
162 -33 36
163 -33 36
164 -33 36
165 -33 36
166 -6 -28
167 -6 -28
168 -6 -28
169 33 -13
170 33 -13
171 -5 -29
172 -5 -29
173 -5 -29
174 -5 -29
175 -5 -29
176 -42 35
177 -42 35
178 -42 35
179 -42 35
180 31 23
181 31 23
182 44 -28
183 44 -28
184 44 -28
185 44 -28
186 5 8
187 5 8
188 5 8
189 5 8
190 -21 -26
191 -21 -26
192 -21 -26
193 -26 45
194 -26 45
195 -26 45
196 -26 45
197 -26 45
198 -26 45
199 -48 -42
200 -48 -42
201 -48 -42
202 -48 -42
203 -48 -16
204 -48 -16
205 -13 -34
206 -13 -34
207 -13 -34
208 -13 -34
209 -13 -34
210 -13 -34
211 13 -6
212 13 -6
213 13 -6
214 13 -6
215 13 -6
216 18 -28
217 18 -28
218 18 -28
219 -32 -14
220 -32 -14
221 -32 -14
222 -1 -38
223 -1 -38
224 -1 -38
225 -16 -20
226 -16 -20
227 -16 -20
228 -16 -20
229 -16 -20
230 -16 -20
231 -4 -42
232 -4 -42
233 -4 -42
234 25 -33
235 25 -33
236 25 -33
237 25 -33
238 21 21
239 21 21
240 21 21
241 21 21
242 -25 29
243 -25 29
244 -25 29
245 -25 29
246 -29 -2
247 -29 -2
248 -29 -2
249 -29 -2
250 -29 -2
251 -29 -2
252 -22 -47
253 -22 -47
254 -40 34
255 -40 34
256 -40 34
257 -40 34
258 -40 34
259 -40 34
260 35 -29
261 35 -29
262 35 -29
263 25 7
264 25 7
265 25 7
266 25 7
267 25 7
268 25 7
269 17 -33
270 17 -33
271 17 -33
272 1 35
273 1 35
274 1 35
275 -7 -21
276 -7 -21
277 -7 -21
278 -7 -21
279 -7 -21
280 -7 -21
281 -7 -21
282 5 38
283 5 38
284 5 38
285 5 38
286 5 38
287 -45 -37
288 -45 -37
289 -45 -37
290 -45 -37
291 -45 -37
292 -45 -37
293 21 -42
294 21 -42
295 21 -42
296 0 49
297 0 49
298 0 49
299 0 49
300 0 49
301 -18 -20
302 -18 -20
303 -18 -20
304 -18 -20
305 45 -46
306 45 -46
307 45 -46
308 45 -46
309 45 -46
310 45 -46
311 6 -19
312 6 -19
313 6 -19
314 6 -19
315 6 -19
316 6 -19
317 16 -9
318 16 -9
319 16 -9
320 16 -9
321 42 -47
322 42 -47
323 42 -47
324 42 -47
325 42 -47
326 42 -47
327 42 -47
328 24 22
329 24 22
330 24 22
331 24 22
332 24 22
333 24 22
334 24 22
335 5 43
336 5 43
337 5 43
338 5 43
339 5 43
340 5 43
341 -18 -34
342 -18 -34
343 -18 -34
344 -18 -34
345 -18 -34
346 -18 -34
347 41 -20
348 41 -20
349 41 -20
350 41 -20
351 41 -20
352 -2 6
353 -2 6
354 -2 6
355 -2 6
356 -2 6
357 -2 6
358 48 -25
359 48 -25
360 48 -25
361 48 -25
362 48 -25
363 48 -25
364 -40 13
365 -40 13
366 -40 13
367 -6 -39
368 -6 -39
369 -6 -39
370 -14 -17
371 -14 -17
372 -14 -17
373 38 20
374 38 20
375 38 20
376 38 20
377 38 20
378 28 46
379 28 46
380 28 46
381 28 46
382 28 46
383 28 46
384 0 15
385 0 15
386 0 15
387 0 15
388 -19 -10
389 -19 -10
390 -19 -10
391 -19 -10
392 -19 -10
393 -19 -10
394 -38 33
395 -38 33
396 -38 33
397 -38 33
398 -29 -7
399 -29 -7
400 -29 -7
401 43 49
402 43 49
403 43 49
404 43 49
405 43 49
406 43 49
407 43 49
408 -50 34
409 -50 34
410 -50 34
411 -41 12
412 -41 12
413 -41 12
414 -41 12
415 -41 12
416 -3 23
417 -3 23
418 -3 23
419 -3 23
420 -3 23
421 -3 23
422 29 33
423 29 33
424 29 33
425 29 33
426 -44 -8
427 -44 -8
428 -44 -8
429 13 22
430 13 22
431 13 22
432 -12 -9
433 -12 -9
434 11 3
435 11 3
436 11 3
437 17 33
438 17 33
439 17 33
440 -7 32
441 -7 32
442 -7 32
443 -7 32
444 -7 32
445 -7 32
446 -7 32
447 37 -45
448 37 -45
449 37 -45
450 37 -45
451 37 -45
452 -36 -37
453 -36 -37
454 -36 -37
455 -36 -37
456 -36 -37
457 10 -21
458 10 -21
459 10 -21
460 10 -21
461 10 -21
462 10 -21
463 -23 -40
464 -23 -40
465 -23 -40
466 -23 -40
467 26 3
468 26 3
469 26 3
470 26 3
471 26 3
472 26 3
473 12 33
474 12 33
475 12 33
476 12 33
477 40 -26
478 40 -26
479 40 -26
480 40 -26
481 40 -26
482 -11 -29
483 -11 -29
484 -35 37
485 -35 37
486 -35 37
487 -35 37
488 -35 37
489 -35 37
490 15 -19
491 15 -19
492 15 -19
493 15 -19
494 15 -19
495 -12 33
496 -12 33
497 39 38
498 39 38
499 39 38
500 39 38
501 39 24
502 39 24
503 39 24
504 39 24
505 39 24
506 -38 26
507 -38 26
508 -38 26
509 -38 26
510 -35 -47
511 -35 -47
512 39 27
513 39 27
514 39 27
515 39 27
516 39 27
517 39 27
518 39 27
519 -16 24
520 -16 24
521 -5 36
522 -5 36
523 -5 36
524 -5 36
525 -5 36
526 -5 36
527 -18 -34
528 -18 -34
529 -18 -34
530 -18 -34
531 -18 -34
532 -40 13
533 -40 13
534 -40 13
535 -40 13
536 -40 13
537 -40 13
538 6 -15
539 6 -15
540 6 -15
541 6 -15
542 6 -15
543 6 -15
544 6 -15
545 -50 19
546 -50 19
547 -50 19
548 -50 19
549 -50 19
550 35 31
551 35 31
552 35 31
553 35 31
554 35 31
555 35 31
556 7 1
557 7 1
558 7 1
559 7 1
560 3 21
561 3 21
562 3 21
563 3 21
564 27 19
565 27 19
566 27 19
567 27 19
568 27 19
569 27 19
570 21 -2
571 21 -2
572 21 -2
573 21 -2
574 21 -2
575 -33 -49
576 37 11
577 37 11
578 37 11
579 -16 -6
580 -16 -6
581 -16 -6
582 -16 -6
583 -29 39
584 -29 39
585 -29 39
586 -29 39
587 -44 45
588 -44 45
589 -44 45
590 -44 45
591 -44 45
592 -44 45
593 -44 45
594 -49 32
595 -49 32
596 -49 32
597 -49 32
598 -49 32
599 -49 32
600 -38 -41
601 -38 -41
602 -38 -41
603 -38 -41
604 -38 -41
605 -38 -41
606 50 6
607 50 6
608 50 6
609 50 6
610 20 17
611 20 17
612 20 17
613 20 17
614 20 17
615 -27 -35
616 -27 -35
617 -27 -35
618 -27 -35
619 -27 -35
620 -27 -35
621 -27 -35
622 17 46
623 17 46
624 17 46
625 17 46
626 17 46
627 0 -9
628 0 -9
629 -22 47
630 -22 47
631 -22 47
632 -22 47
633 -40 -44
634 -40 -44
635 -40 -44
636 41 -8
637 41 -8
638 41 -8
639 41 -8
640 8 29
641 8 29
642 8 29
643 4 -19
644 4 -19
645 4 -19
646 4 -19
647 4 -19
648 4 -19
649 -35 45
650 -35 45
651 -35 45
652 -35 45
653 10 -35
654 10 -35
655 10 -35
656 10 -35
657 10 -35
658 10 -35
659 10 -35
660 3 -25
661 3 -25
662 3 -25
663 -32 -25
664 -32 -25
665 -32 -25
666 -32 -25
667 -32 -25
668 -32 -25
669 -27 -42
670 -27 -42
671 -27 -42
672 -27 -42
673 11 -42
674 11 -42
675 11 -42
676 11 -42
677 11 -42
678 21 20
679 21 20
680 21 20
681 21 20
682 21 20
683 21 20
684 26 -26
685 26 -26
686 -36 29
687 -36 29
688 -36 29
689 -36 29
690 -36 29
691 -36 29
692 28 28
693 28 28
694 28 28
695 28 28
696 28 28
697 28 28
698 -23 -45
699 -23 -45
700 -23 -45
701 -23 -45
702 -23 -45
703 -23 -45
704 -23 -45
705 -1 27
706 -1 27
707 -1 27
708 -1 27
709 -1 27
710 -1 27
711 20 -34
712 20 -34
713 20 -34
714 35 15
715 35 15
716 -34 -38
717 -34 -38
718 -34 -38
719 -34 -38
720 -41 -36
721 -41 -36
722 -41 -36
723 -20 -36
724 -20 -36
725 -20 -36
726 -20 -36
727 -20 -36
728 43 10
729 43 10
730 43 10
731 43 10
732 43 10
733 22 24
734 22 24
735 22 24
736 19 13
737 19 13
738 19 13
739 19 13
740 19 13
741 19 13
742 19 13
743 -49 10
744 -49 10
745 -49 10
746 -9 24
747 -9 24
748 -9 24
749 -9 24
750 -9 24
751 -9 24
752 -3 -6
753 -3 -6
754 -3 -6
755 -3 -6
756 -3 -6
757 -3 -6
758 -3 -6
759 -47 -21
760 -47 -21
761 -47 -21
762 -47 -21
763 -47 -21
764 -47 -21
765 -47 -21
766 21 -6
767 21 -6
768 21 -6
769 -42 1
770 -42 1
771 -42 1
772 -42 1
773 25 27
774 25 27
775 25 27
776 25 27
777 25 27
778 1 -13
779 1 -13
780 1 -13
781 1 -13
782 1 -13
783 1 -13
784 1 -13
785 21 -18
786 21 -18
787 -33 3
788 -33 3
789 -33 3
790 -33 3
791 -33 3
792 -28 12
793 -28 12
794 -28 12
795 -28 12
796 -28 12
797 -1 35
798 -1 35
799 -1 35
800 -20 -34
801 -20 -34
802 -20 -34
803 -20 -34
804 -20 -34
805 -14 -21
806 -14 -21
807 -14 -21
808 -14 -21
809 -14 -21
810 1 -4
811 1 -4
812 -50 42
813 -50 42
814 -50 42
815 -50 -44
816 -50 -44
817 -50 -44
818 -50 -44
819 -50 -44
820 -27 -18
821 -27 -18
822 -27 -18
823 -27 -18
824 -27 -18
825 -27 -18
826 -27 -18
827 -40 24
828 -40 24
829 -40 24
830 -40 24
831 13 -32
832 13 -32
833 -17 9
834 -17 9
835 -17 9
836 -17 9
837 -17 9
838 -17 9
839 32 -36
840 32 -36
841 32 -36
842 32 -36
843 -49 35
844 -49 35
845 -49 35
846 -49 35
847 -46 15
848 -46 15
849 -46 15
850 -46 15
851 -46 15
852 -46 15
853 38 29
854 38 29
855 38 29
856 38 29
857 38 29
858 38 29
859 38 29
860 38 29
861 -45 -49
862 -45 -49
863 -50 29
864 -50 29
865 -50 29
866 -50 29
867 -14 -13
868 -14 -13
869 -14 -13
870 -14 -13
871 -14 -13
872 -14 -13
873 -14 -13
874 7 10
875 7 10
876 7 10
877 7 10
878 15 -46
879 15 -46
880 15 -46
881 15 -46
882 -9 49
883 -9 49
884 -9 49
885 -9 49
886 -41 46
887 -41 46
888 -40 -37
889 -40 -37
890 -40 -37
891 -40 -37
892 -40 -37
893 -40 -37
894 -40 -37
895 -40 -37
896 -22 -45
897 -22 -45
898 -22 -45
899 -22 -45
900 -22 -45
901 -21 33
902 -21 33
903 -21 33
904 -21 33
905 -21 33
906 -21 33
907 -21 33
908 50 15
909 50 15
910 50 15
911 50 15
DEMAND_SECTION
1 0
2 400
3 400
4 20
5 400
6 400
7 100
8 20
9 400
10 400
11 100
12 20
13 20
14 20
15 20
16 400
17 20
18 20
19 20
20 10
21 400
22 10
23 200
24 20
25 20
26 20
27 10
28 400
29 200
30 10
31 200
32 100
33 10
34 400
35 400
36 100
37 20
38 20
39 10
40 400
41 200
42 20
43 20
44 20
45 20
46 400
47 200
48 100
49 20
50 20
51 20
52 400
53 400
54 10
55 400
56 400
57 10
58 200
59 20
60 20
61 20
62 20
63 10
64 400
65 400
66 200
67 20
68 20
69 20
70 10
71 200
72 100
73 400
74 400
75 100
76 20
77 20
78 20
79 10
80 200
81 20
82 20
83 20
84 200
85 100
86 20
87 20
88 20
89 20
90 10
91 200
92 100
93 20
94 20
95 20
96 20
97 10
98 400
99 400
100 20
101 200
102 20
103 20
104 20
105 20
106 400
107 100
108 20
109 20
110 20
111 20
112 10
113 400
114 200
115 100
116 20
117 20
118 20
119 10
120 400
121 200
122 20
123 20
124 20
125 10
126 400
127 200
128 100
129 10
130 400
131 200
132 20
133 20
134 20
135 10
136 400
137 400
138 100
139 20
140 10
141 400
142 200
143 400
144 200
145 10
146 200
147 20
148 20
149 20
150 20
151 10
152 400
153 400
154 20
155 20
156 20
157 10
158 200
159 100
160 20
161 400
162 400
163 100
164 20
165 10
166 200
167 100
168 10
169 200
170 100
171 400
172 400
173 20
174 20
175 10
176 400
177 400
178 20
179 10
180 400
181 10
182 400
183 400
184 20
185 20
186 200
187 100
188 20
189 10
190 400
191 200
192 20
193 200
194 100
195 20
196 20
197 20
198 10
199 400
200 400
201 20
202 10
203 400
204 200
205 400
206 400
207 100
208 20
209 20
210 10
211 400
212 200
213 100
214 20
215 10
216 400
217 100
218 20
219 200
220 100
221 20
222 200
223 100
224 20
225 200
226 100
227 20
228 20
229 20
230 10
231 400
232 400
233 10
234 400
235 100
236 20
237 10
238 400
239 400
240 100
241 20
242 400
243 100
244 20
245 10
246 400
247 400
248 100
249 20
250 20
251 10
252 400
253 10
254 400
255 200
256 20
257 20
258 20
259 10
260 400
261 400
262 100
263 400
264 200
265 100
266 20
267 20
268 20
269 400
270 200
271 100
272 400
273 20
274 20
275 400
276 400
277 20
278 20
279 20
280 20
281 10
282 400
283 100
284 20
285 20
286 10
287 400
288 200
289 20
290 20
291 20
292 20
293 400
294 400
295 20
296 400
297 100
298 20
299 20
300 20
301 400
302 100
303 20
304 10
305 400
306 400
307 20
308 20
309 20
310 10
311 400
312 200
313 20
314 20
315 20
316 10
317 200
318 100
319 20
320 10
321 400
322 200
323 100
324 20
325 20
326 20
327 10
328 200
329 100
330 20
331 20
332 20
333 20
334 10
335 400
336 400
337 20
338 20
339 20
340 20
341 400
342 400
343 100
344 20
345 20
346 20
347 400
348 200
349 100
350 20
351 20
352 400
353 100
354 20
355 20
356 20
357 10
358 400
359 100
360 20
361 20
362 20
363 20
364 200
365 100
366 20
367 400
368 20
369 20
370 400
371 200
372 10
373 400
374 200
375 20
376 20
377 10
378 400
379 400
380 20
381 20
382 20
383 20
384 400
385 200
386 100
387 20
388 400
389 100
390 20
391 20
392 20
393 10
394 200
395 20
396 20
397 10
398 400
399 20
400 10
401 400
402 400
403 20
404 20
405 20
406 20
407 10
408 200
409 100
410 10
411 400
412 400
413 20
414 20
415 10
416 400
417 100
418 20
419 20
420 20
421 10
422 400
423 200
424 100
425 10
426 400
427 400
428 200
429 400
430 200
431 100
432 400
433 200
434 400
435 400
436 10
437 200
438 100
439 20
440 400
441 200
442 100
443 20
444 20
445 20
446 20
447 400
448 20
449 20
450 20
451 20
452 400
453 100
454 20
455 20
456 20
457 400
458 20
459 20
460 20
461 20
462 10
463 400
464 20
465 20
466 10
467 400
468 200
469 100
470 20
471 20
472 10
473 200
474 20
475 20
476 10
477 400
478 400
479 100
480 20
481 10
482 400
483 100
484 400
485 200
486 20
487 20
488 20
489 10
490 200
491 20
492 20
493 20
494 20
495 400
496 20
497 400
498 100
499 20
500 10
501 400
502 200
503 20
504 20
505 20
506 400
507 200
508 20
509 10
510 400
511 20
512 400
513 400
514 20
515 20
516 20
517 20
518 10
519 400
520 20
521 200
522 100
523 20
524 20
525 20
526 10
527 400
528 400
529 100
530 20
531 20
532 400
533 200
534 20
535 20
536 20
537 10
538 400
539 400
540 100
541 20
542 20
543 20
544 20
545 400
546 400
547 20
548 20
549 20
550 400
551 400
552 100
553 20
554 20
555 20
556 400
557 400
558 100
559 10
560 400
561 200
562 100
563 20
564 200
565 100
566 20
567 20
568 20
569 10
570 400
571 20
572 20
573 20
574 20
575 400
576 400
577 20
578 20
579 400
580 200
581 100
582 10
583 200
584 100
585 20
586 20
587 400
588 400
589 20
590 20
591 20
592 20
593 10
594 400
595 20
596 20
597 20
598 20
599 10
600 400
601 400
602 100
603 20
604 20
605 10
606 400
607 200
608 100
609 10
610 200
611 20
612 20
613 20
614 20
615 200
616 100
617 20
618 20
619 20
620 20
621 10
622 200
623 100
624 20
625 20
626 20
627 400
628 200
629 200
630 20
631 20
632 10
633 400
634 200
635 100
636 400
637 20
638 20
639 10
640 400
641 100
642 20
643 400
644 200
645 20
646 20
647 20
648 20
649 200
650 100
651 20
652 10
653 400
654 400
655 100
656 20
657 20
658 20
659 10
660 400
661 400
662 100
663 400
664 400
665 20
666 20
667 20
668 20
669 400
670 100
671 20
672 10
673 400
674 200
675 20
676 20
677 20
678 400
679 200
680 20
681 20
682 20
683 10
684 400
685 20
686 400
687 200
688 100
689 20
690 20
691 20
692 200
693 100
694 20
695 20
696 20
697 20
698 400
699 400
700 100
701 20
702 20
703 20
704 10
705 400
706 200
707 20
708 20
709 20
710 20
711 400
712 200
713 10
714 400
715 20
716 200
717 20
718 20
719 10
720 400
721 200
722 100
723 400
724 400
725 100
726 20
727 20
728 400
729 100
730 20
731 20
732 20
733 200
734 100
735 20
736 400
737 400
738 100
739 20
740 20
741 20
742 20
743 400
744 20
745 10
746 400
747 400
748 100
749 20
750 20
751 10
752 200
753 100
754 20
755 20
756 20
757 20
758 10
759 200
760 100
761 20
762 20
763 20
764 20
765 10
766 400
767 200
768 10
769 200
770 20
771 20
772 10
773 400
774 200
775 20
776 20
777 20
778 400
779 200
780 20
781 20
782 20
783 20
784 10
785 200
786 100
787 400
788 400
789 20
790 20
791 10
792 400
793 400
794 20
795 20
796 10
797 400
798 20
799 10
800 400
801 20
802 20
803 20
804 10
805 200
806 20
807 20
808 20
809 10
810 400
811 200
812 400
813 400
814 100
815 400
816 200
817 20
818 20
819 10
820 400
821 200
822 100
823 20
824 20
825 20
826 20
827 400
828 200
829 100
830 10
831 400
832 20
833 400
834 200
835 100
836 20
837 20
838 20
839 400
840 100
841 20
842 10
843 400
844 200
845 20
846 20
847 400
848 100
849 20
850 20
851 20
852 20
853 400
854 200
855 100
856 20
857 20
858 20
859 20
860 10
861 400
862 100
863 200
864 100
865 20
866 10
867 400
868 200
869 100
870 20
871 20
872 20
873 20
874 400
875 200
876 20
877 10
878 200
879 100
880 20
881 10
882 200
883 20
884 20
885 20
886 400
887 20
888 400
889 400
890 100
891 20
892 20
893 20
894 20
895 10
896 400
897 100
898 20
899 20
900 20
901 400
902 200
903 100
904 20
905 20
906 20
907 10
908 200
909 100
910 20
911 20
DEPOT_SECTION
1
-1
EOF