SDVRP instances/custom_instances/p10_11_splitx10_0.sol
910 -6 7 897 896 898 895 899 701 700 698 252 251 20 21 -11 12 9 10 8 13 14 582 903 904 905 900 902 901 906 -22 23 26 24 25 766 765 767 318 317 316 319 214 210 211 213 212 -38 37 34 33 662 35 36 664 666 663 667 665 824 822 821 825 -40 272 271 273 137 139 138 135 136 798 797 796 -42 39 44 560 561 562 559 85 87 88 84 89 83 86 417 415 418 -48 47 46 49 45 50 4 5 205 208 276 -59 60 58 61 221 222 223 150 148 146 149 145 147 231 230 232 366 367 368 172 174 -63 64 335 338 336 337 339 334 284 283 285 282 41 43 385 386 -70 71 574 510 509 632 633 634 604 603 601 602 -82 81 79 80 654 653 652 656 831 830 537 -100 103 101 849 850 846 547 544 545 546 548 742 743 744 -102 104 848 851 847 862 864 863 865 598 594 596 595 597 593 407 409 408 842 844 843 845 -117 114 115 112 118 401 402 405 403 404 400 406 498 497 499 496 -141 140 55 54 56 389 390 388 387 392 391 -151 156 153 155 357 359 362 361 360 358 183 182 184 181 480 479 478 -154 152 350 349 348 347 346 30 31 32 637 638 636 635 -159 144 143 158 142 157 823 820 819 399 398 397 -168 169 477 476 259 261 260 -170 173 171 166 165 167 481 279 278 280 277 275 -186 188 429 428 430 77 74 78 75 73 76 72 875 874 -187 185 732 734 772 776 775 774 773 421 422 691 693 333 330 -198 199 201 200 815 818 816 814 817 860 861 -215 217 236 235 838 125 128 126 127 683 684 -218 220 219 763 760 764 758 762 759 761 203 202 96 92 91 93 95 94 90 769 770 768 771 -229 228 124 121 123 120 122 119 190 191 189 301 302 303 300 -240 238 237 239 610 609 611 739 740 736 735 -241 164 163 161 162 160 484 483 487 485 -242 244 243 486 488 592 586 587 588 590 589 591 811 813 812 -246 245 247 249 248 250 426 425 427 -262 267 265 263 16 17 19 15 18 466 569 573 572 570 571 -264 266 575 713 714 375 374 372 373 376 500 -268 270 710 712 711 234 233 216 490 489 491 492 493 -269 131 133 130 129 134 132 879 878 880 877 675 674 676 672 673 655 657 658 780 779 782 783 781 -274 62 57 661 659 660 461 457 460 458 456 459 -281 625 621 624 622 623 377 380 379 382 381 378 113 116 424 423 -293 292 294 109 110 108 111 105 107 106 446 449 839 840 841 -299 296 297 295 298 98 97 99 883 882 881 884 68 67 69 66 65 525 524 -343 342 340 529 526 530 341 527 528 344 345 -351 355 356 354 353 352 383 29 28 27 873 876 -370 369 371 805 806 808 807 804 225 226 227 224 867 866 870 869 868 871 872 -384 747 746 745 519 518 832 835 -394 395 393 396 256 257 254 258 255 253 176 177 178 175 689 688 690 687 -411 413 410 412 414 533 536 532 365 364 531 363 535 534 793 795 794 -419 416 420 441 445 442 443 444 439 440 521 520 522 523 709 704 707 708 705 706 -434 435 433 557 556 558 555 -438 436 437 472 475 474 473 51 53 52 639 640 641 -450 447 448 321 325 322 326 324 323 320 309 306 307 308 304 305 784 785 -455 453 452 454 451 892 893 894 888 889 290 291 286 288 287 289 720 -469 468 471 470 467 606 605 607 608 907 908 910 909 728 730 731 729 727 576 577 -482 209 206 204 207 722 724 723 725 726 802 799 -503 504 502 501 514 516 513 512 511 517 515 3 1 2 856 -538 539 540 541 543 542 310 311 314 315 312 313 647 645 644 646 643 642 -579 581 578 580 432 431 751 752 753 755 756 757 754 -585 583 584 885 886 650 648 649 651 196 193 192 194 197 195 631 628 629 630 495 494 750 748 749 -612 613 678 682 677 680 681 679 327 331 332 329 328 179 180 563 564 568 567 566 565 741 738 737 -616 619 614 617 615 620 618 671 668 669 670 703 699 697 702 464 463 462 465 801 803 800 -626 627 777 778 810 809 -686 685 506 505 507 508 826 827 828 829 -718 717 716 715 599 600 887 890 891 721 719 -733 696 695 694 692 550 552 553 549 554 551 852 858 853 857 854 859 855 -787 790 789 788 786 791 792 836 837 833 834 0 





OBJ=
5556.674
BEST_KNOWN=
0.000